# Solution for model JobShopModel
# Objective value = 74
y[0,0,1] 1
y[0,1,1] 1
y[0,2,0] 1
y[1,0,1] 1
y[1,1,2] 1
y[1,2,1] 1
y[2,0,1] 1
y[2,1,1] 1
y[2,2,1] 1
x[0,0,0,0] 0
x[0,0,0,1] 1
x[0,0,0,2] 0
x[0,0,1,0] 1
x[0,0,1,1] 0
x[0,0,1,2] 1
x[0,0,2,0] 0
x[0,0,2,1] 1
x[0,0,2,2] 0
x[0,1,0,0] 0
x[0,1,0,1] 0
x[0,1,0,2] 0
x[0,1,1,0] 1
x[0,1,1,1] 0
x[0,1,1,2] 1
x[0,1,2,0] 0
x[0,1,2,1] 0
x[0,1,2,2] 0
x[0,2,0,0] 0
x[0,2,0,1] 0
x[0,2,0,2] 0
x[0,2,1,0] 0
x[0,2,1,1] 0
x[0,2,1,2] 0
x[0,2,2,0] 0
x[0,2,2,1] 0
x[0,2,2,2] 0
x[1,0,0,0] 0
x[1,0,0,1] 0
x[1,0,0,2] 0
x[1,0,1,0] 0
x[1,0,1,1] 0
x[1,0,1,2] 1
x[1,0,2,0] 0
x[1,0,2,1] 0
x[1,0,2,2] 0
x[1,1,0,0] 0
x[1,1,0,1] 0
x[1,1,0,2] 0
x[1,1,1,0] 0
x[1,1,1,1] 0
x[1,1,1,2] 0
x[1,1,2,0] 0
x[1,1,2,1] 0
x[1,1,2,2] 0
x[1,2,0,0] 0
x[1,2,0,1] 0
x[1,2,0,2] 0
x[1,2,1,0] 0
x[1,2,1,1] 0
x[1,2,1,2] 0
x[1,2,2,0] 0
x[1,2,2,1] 0
x[1,2,2,2] 0
x[2,0,0,0] 0
x[2,0,0,1] 0
x[2,0,0,2] 0
x[2,0,1,0] 0
x[2,0,1,1] 0
x[2,0,1,2] 0
x[2,0,2,0] 0
x[2,0,2,1] 1
x[2,0,2,2] 1
x[2,1,0,0] 0
x[2,1,0,1] 0
x[2,1,0,2] 0
x[2,1,1,0] 0
x[2,1,1,1] 0
x[2,1,1,2] 0
x[2,1,2,0] 0
x[2,1,2,1] 0
x[2,1,2,2] 0
x[2,2,0,0] 0
x[2,2,0,1] 0
x[2,2,0,2] 0
x[2,2,1,0] 0
x[2,2,1,1] 0
x[2,2,1,2] 0
x[2,2,2,0] 0
x[2,2,2,1] 1
x[2,2,2,2] 0
s[0,0,1] 2.8999999999993889e+01
s[0,1,1] 1.3999999999998671e+01
s[0,2,0] 1
s[1,0,1] 5.9999999999997966e+00
s[1,1,2] 2.9999999999997975e+00
s[1,2,1] 1.7169344526463155e-12
s[2,0,1] 5.0999999999998444e+01
s[2,1,1] 2.3110093467674602e+01
s[2,2,1] 4.0999999999995808e+01
Z_FO 74
C100 1
C101 1
C102 1
